SECTION Graph
Nodes 610
Edges 1201
E 1 9 21
E 1 542 76
E 2 3 14
E 2 10 21
E 3 4 1
E 3 11 21
E 4 12 21
E 5 6 1
E 6 7 14
E 7 8 1
E 8 212 13
E 9 10 1
E 9 13 68
E 9 519 76
E 10 11 14
E 10 14 68
E 11 12 1
E 11 15 68
E 12 16 68
E 13 14 1
E 13 32 7
E 13 498 96
E 14 15 14
E 14 499 96
E 15 16 1
E 15 501 96
E 16 502 96
E 17 18 1
E 17 481 7
E 17 486 2
E 17 488 1
E 18 19 14
E 18 487 2
E 18 489 1
E 19 20 1
E 19 494 2
E 19 496 1
E 20 495 2
E 20 497 1
E 21 22 1
E 21 461 7
E 21 463 2
E 21 486 19
E 22 23 14
E 22 467 2
E 22 487 19
E 23 24 1
E 23 479 2
E 23 494 19
E 24 482 2
E 24 495 19
E 25 26 1
E 25 442 7
E 25 463 19
E 26 27 14
E 26 467 19
E 27 28 1
E 27 479 19
E 28 482 19
E 29 30 1
E 29 492 88
E 29 507 30
E 30 31 14
E 30 34 96
E 31 32 1
E 31 35 96
E 32 36 96
E 33 34 1
E 33 52 7
E 33 465 18
E 33 492 8
E 34 35 14
E 34 469 18
E 35 36 1
E 35 480 18
E 36 483 18
E 36 498 7
E 37 38 1
E 37 56 7
E 37 447 19
E 37 462 2
E 38 39 14
E 38 448 19
E 38 466 2
E 39 40 1
E 39 460 19
E 39 478 2
E 40 461 19
E 40 481 2
E 40 486 7
E 41 42 1
E 41 60 7
E 41 429 19
E 41 447 2
E 42 43 14
E 42 430 19
E 42 448 2
E 43 44 1
E 43 440 19
E 43 460 2
E 44 442 19
E 44 461 2
E 44 463 7
E 45 46 1
E 45 64 7
E 45 429 2
E 46 47 14
E 46 430 2
E 47 48 1
E 47 440 2
E 48 442 2
E 49 50 1
E 49 445 18
E 49 454 7
E 49 472 8
E 50 51 14
E 50 446 18
E 50 473 8
E 51 52 1
E 51 458 18
E 51 484 8
E 52 459 18
E 52 485 8
E 53 54 1
E 53 426 18
E 53 432 7
E 53 445 3
E 54 55 14
E 54 428 18
E 54 446 3
E 55 56 1
E 55 436 18
E 55 458 3
E 56 439 18
E 56 459 3
E 57 58 1
E 57 287 114
E 57 412 19
E 57 425 2
E 58 59 14
E 58 414 19
E 58 427 2
E 59 60 1
E 59 419 19
E 59 435 2
E 60 420 19
E 60 437 2
E 61 62 1
E 61 412 2
E 62 63 14
E 62 414 2
E 63 64 1
E 63 419 2
E 64 420 2
E 65 66 1
E 65 369 76
E 65 438 8
E 65 455 24
E 65 504 88
E 66 67 14
E 66 441 8
E 66 505 88
E 67 68 1
E 67 452 8
E 67 476 17
E 68 454 8
E 68 472 7
E 68 477 17
E 69 70 1
E 69 553 7
E 70 71 14
E 71 72 1
E 71 554 2
E 72 555 2
E 73 74 1
E 73 541 30
E 73 550 2
E 74 75 14
E 74 551 2
E 75 76 1
E 75 552 2
E 76 553 2
E 76 554 22
E 77 78 1
E 77 500 108
E 77 548 5
E 78 79 14
E 78 549 5
E 79 80 1
E 79 83 21
E 80 84 21
E 81 82 1
E 81 525 7
E 81 532 4
E 81 536 7
E 82 83 14
E 82 533 4
E 82 540 7
E 83 84 1
E 83 546 4
E 84 547 4
E 85 86 1
E 85 90 111
E 85 523 13
E 86 87 14
E 86 91 111
E 86 526 13
E 87 88 1
E 87 490 111
E 87 537 13
E 88 491 111
E 88 541 13
E 89 443 32
E 89 468 7
E 89 474 1
E 90 91 1
E 90 471 7
E 90 474 1
E 91 475 1
E 91 490 14
E 92 93 1
E 92 456 33
E 92 475 14
E 92 490 1
E 93 457 33
E 93 491 1
E 93 508 68
E 94 95 1
E 94 354 17
E 94 363 7
E 94 376 3
E 95 96 14
E 95 355 17
E 95 380 3
E 96 97 1
E 96 368 17
E 96 394 3
E 97 369 17
E 97 398 3
E 97 455 69
E 98 99 1
E 98 276 7
E 98 283 3
E 98 297 1
E 99 100 14
E 99 287 3
E 99 298 1
E 100 101 1
E 100 280 20
E 100 315 1
E 101 282 20
E 101 317 1
E 101 410 76
E 102 103 1
E 102 451 128
E 102 493 83
E 102 510 2
E 103 104 14
E 103 453 128
E 103 511 2
E 104 105 1
E 104 470 128
E 104 520 2
E 105 471 128
E 105 521 2
E 105 532 7
E 106 107 1
E 106 110 21
E 106 337 30
E 106 375 2
E 107 108 14
E 107 111 21
E 107 379 2
E 108 109 1
E 108 112 21
E 108 393 2
E 109 113 21
E 109 397 2
E 109 406 7
E 110 111 1
E 110 340 7
E 110 346 3
E 111 112 14
E 111 347 3
E 112 113 1
E 112 362 3
E 113 363 3
E 113 376 7
E 114 115 1
E 114 259 1
E 114 266 6
E 115 116 14
E 115 260 1
E 115 268 6
E 116 117 1
E 116 275 1
E 116 292 6
E 117 276 1
E 117 295 6
E 117 297 7
E 118 119 1
E 118 259 20
E 119 120 14
E 119 260 20
E 120 121 1
E 120 275 20
E 121 263 7
E 121 276 20
E 122 123 1
E 122 250 30
E 122 255 14
E 123 124 14
E 123 257 14
E 124 125 1
E 124 271 14
E 125 266 7
E 125 273 14
E 126 127 1
E 126 319 2
E 127 128 14
E 127 322 2
E 128 129 1
E 128 335 2
E 129 337 2
E 129 375 30
E 130 131 1
E 130 246 30
E 130 247 14
E 131 132 14
E 131 248 14
E 132 133 1
E 132 249 14
E 133 250 14
E 133 251 8
E 133 285 53
E 134 220 2
E 134 401 108
E 134 493 2
E 134 510 83
E 135 222 9
E 135 416 108
E 135 500 3
E 135 524 83
E 136 137 1
E 136 235 1
E 137 138 14
E 137 236 1
E 138 139 1
E 138 239 1
E 139 240 1
E 140 141 1
E 140 373 7
E 140 386 3
E 140 388 4
E 141 142 14
E 141 387 3
E 141 390 4
E 142 143 1
E 142 402 3
E 142 411 4
E 143 221 108
E 143 404 3
E 143 413 4
E 144 145 1
E 144 353 7
E 144 374 14
E 145 146 14
E 145 378 14
E 146 147 1
E 146 392 14
E 147 396 14
E 148 149 1
E 148 370 3
E 149 150 14
E 149 371 3
E 150 151 1
E 150 389 3
E 151 391 3
E 151 500 131
E 152 153 1
E 152 314 30
E 152 349 1
E 152 356 5
E 153 154 14
E 153 352 1
E 153 357 5
E 154 155 1
E 154 365 1
E 154 372 5
E 155 367 1
E 155 373 5
E 155 382 7
E 156 157 1
E 156 278 30
E 156 330 5
E 157 158 14
E 157 331 5
E 158 159 1
E 158 351 5
E 159 353 5
E 160 161 1
E 160 274 7
E 160 284 1
E 160 293 1
E 161 162 14
E 161 288 1
E 161 296 1
E 162 163 1
E 162 307 1
E 162 313 1
E 163 310 1
E 163 314 1
E 163 349 30
E 164 165 1
E 164 252 23
E 164 261 1
E 165 166 14
E 165 262 1
E 166 167 1
E 166 277 1
E 167 278 1
E 168 169 1
E 168 256 10
E 169 170 14
E 169 258 10
E 170 171 1
E 170 272 10
E 171 274 10
E 171 303 7
E 172 173 1
E 172 252 10
E 172 256 11
E 173 174 14
E 173 258 11
E 174 175 1
E 174 272 11
E 175 269 7
E 175 274 11
E 176 177 1
E 176 227 14
E 176 230 7
E 177 178 14
E 177 228 14
E 178 179 1
E 178 233 14
E 179 234 14
E 179 241 191
E 180 181 1
E 180 184 21
E 180 199 7
E 181 182 14
E 181 185 21
E 182 183 1
E 182 186 21
E 183 187 21
E 183 252 243
E 184 185 1
E 184 188 21
E 184 203 7
E 185 186 14
E 185 189 21
E 186 187 1
E 186 190 21
E 187 191 21
E 188 189 1
E 188 207 7
E 188 223 1
E 189 190 14
E 189 224 1
E 190 191 1
E 190 229 1
E 191 230 1
E 192 193 1
E 192 211 7
E 192 223 20
E 193 194 14
E 193 224 20
E 194 195 1
E 194 229 20
E 195 225 7
E 195 230 20
E 196 197 1
E 196 200 21
E 196 219 11
E 197 198 14
E 197 201 21
E 198 199 1
E 198 202 21
E 199 203 21
E 200 201 1
E 200 204 21
E 201 202 14
E 201 205 21
E 202 203 1
E 202 206 21
E 203 207 21
E 204 205 1
E 204 208 21
E 205 206 14
E 205 209 21
E 206 207 1
E 206 210 21
E 207 211 21
E 208 209 1
E 208 212 21
E 209 210 14
E 209 213 21
E 210 211 1
E 210 214 21
E 211 215 21
E 212 213 1
E 213 214 14
E 214 215 1
E 216 217 1
E 217 218 14
E 218 219 1
E 220 221 3
E 220 404 108
E 220 512 83
E 221 222 4
E 221 514 83
E 222 413 108
E 222 516 83
E 223 224 1
E 224 229 14
E 225 226 1
E 225 227 6
E 226 228 6
E 226 231 14
E 227 228 1
E 228 233 14
E 229 230 1
E 231 232 1
E 231 233 6
E 232 234 6
E 232 235 191
E 233 234 1
E 234 237 191
E 235 236 1
E 235 237 6
E 236 238 6
E 236 239 14
E 237 238 1
E 237 241 14
E 238 242 14
E 238 243 14
E 239 240 1
E 239 243 6
E 240 244 6
E 241 242 1
E 242 245 14
E 243 244 1
E 243 245 14
E 244 246 14
E 244 247 30
E 245 246 1
E 247 248 1
E 248 249 14
E 249 250 1
E 251 253 14
E 251 290 46
E 253 254 1
E 253 308 46
E 254 255 7
E 254 311 46
E 255 257 1
E 255 324 46
E 256 258 1
E 257 271 14
E 257 326 46
E 258 272 14
E 259 260 1
E 260 275 14
E 261 262 1
E 261 265 5
E 262 267 5
E 262 277 14
E 263 264 1
E 263 283 17
E 264 280 14
E 264 287 17
E 265 267 1
E 265 269 4
E 266 268 1
E 266 279 11
E 267 270 4
E 267 289 14
E 268 281 11
E 268 292 14
E 269 270 1
E 269 284 10
E 270 288 10
E 270 299 14
E 271 273 1
E 271 338 46
E 272 274 1
E 273 286 7
E 273 340 46
E 275 276 1
E 277 278 1
E 277 289 5
E 278 294 5
E 279 281 1
E 279 286 3
E 280 282 1
E 281 291 3
E 281 305 14
E 282 412 101
E 283 287 1
E 284 288 1
E 285 290 1
E 285 319 21
E 286 291 1
E 286 346 43
E 288 307 14
E 289 294 1
E 289 299 4
E 290 308 14
E 290 322 21
E 291 309 14
E 291 316 18
E 292 295 1
E 292 305 11
E 293 296 1
E 293 301 5
E 294 300 4
E 294 330 30
E 295 306 11
E 296 302 5
E 296 313 14
E 297 298 1
E 297 318 17
E 298 315 14
E 298 320 17
E 299 300 1
E 299 307 10
E 300 310 10
E 301 302 1
E 301 303 4
E 302 304 4
E 302 321 14
E 303 304 1
E 304 328 14
E 305 306 1
E 305 309 3
E 306 312 3
E 306 318 7
E 307 310 1
E 308 311 1
E 308 335 21
E 309 312 1
E 309 332 18
E 310 348 30
E 311 324 7
E 311 337 21
E 312 325 7
E 312 333 18
E 313 314 1
E 313 321 5
E 314 323 5
E 315 317 1
E 315 334 17
E 316 332 14
E 316 347 25
E 317 336 17
E 318 320 1
E 318 325 3
E 319 322 1
E 320 327 3
E 320 334 14
E 321 323 1
E 321 328 4
E 322 335 14
E 323 329 4
E 323 356 30
E 324 326 1
E 325 327 1
E 325 343 18
E 326 338 14
E 327 339 14
E 327 345 18
E 328 329 1
E 329 359 30
E 330 331 1
E 330 348 14
E 331 350 14
E 331 351 14
E 332 333 1
E 332 342 8
E 333 343 7
E 333 344 8
E 334 336 1
E 334 339 3
E 335 337 1
E 336 341 3
E 336 421 76
E 338 340 1
E 339 341 1
E 339 358 18
E 341 360 18
E 341 377 30
E 342 344 1
E 342 362 17
E 343 345 1
E 343 354 8
E 344 354 7
E 344 363 17
E 345 355 8
E 345 358 14
E 346 347 1
E 347 362 14
E 348 349 1
E 348 350 1
E 349 352 1
E 350 352 1
E 350 364 14
E 351 353 1
E 351 364 14
E 352 365 14
E 353 366 14
E 354 355 1
E 355 368 14
E 356 357 1
E 356 359 4
E 357 361 4
E 357 372 14
E 358 360 1
E 358 368 8
E 359 361 1
E 359 370 9
E 360 369 8
E 360 438 76
E 361 371 9
E 361 383 14
E 362 363 1
E 364 365 1
E 364 366 1
E 365 367 1
E 366 367 1
E 366 374 7
E 368 369 1
E 370 371 1
E 371 389 14
E 372 373 1
E 372 383 4
E 373 385 4
E 374 378 1
E 374 382 2
E 375 379 1
E 375 449 77
E 376 380 1
E 376 406 21
E 377 381 1
E 378 384 2
E 378 392 14
E 379 393 14
E 379 450 77
E 380 394 14
E 380 407 21
E 381 395 14
E 382 384 1
E 382 386 2
E 383 385 1
E 383 389 9
E 384 387 2
E 384 400 14
E 385 388 7
E 385 391 9
E 386 387 1
E 387 402 14
E 388 390 1
E 388 403 9
E 389 391 1
E 390 405 9
E 390 411 14
E 391 403 7
E 392 396 1
E 392 400 2
E 393 397 1
E 393 464 77
E 394 398 1
E 394 417 21
E 395 399 1
E 396 401 2
E 396 493 108
E 397 443 52
E 397 468 77
E 398 418 21
E 399 408 7
E 400 401 1
E 400 402 2
E 401 404 2
E 402 404 1
E 403 405 1
E 405 415 14
E 406 407 1
E 406 443 47
E 407 417 14
E 407 444 47
E 408 409 1
E 409 423 22
E 410 421 18
E 410 426 23
E 411 413 1
E 411 415 9
E 412 414 1
E 413 416 9
E 414 419 14
E 415 416 1
E 417 418 1
E 417 456 47
E 418 457 47
E 419 420 1
E 420 429 7
E 421 422 1
E 421 423 3
E 422 424 3
E 422 431 14
E 423 424 1
E 423 438 18
E 424 433 14
E 424 441 18
E 425 426 1
E 425 427 1
E 426 428 1
E 427 428 1
E 427 435 14
E 428 436 14
E 429 430 1
E 430 440 14
E 431 432 1
E 431 433 3
E 432 434 3
E 433 434 1
E 433 452 18
E 434 445 7
E 434 454 18
E 435 436 1
E 435 437 1
E 436 439 1
E 437 439 1
E 437 447 7
E 438 441 1
E 440 442 1
E 441 452 14
E 443 444 1
E 444 456 14
E 444 475 33
E 445 446 1
E 446 458 14
E 447 448 1
E 448 460 14
E 449 450 1
E 449 451 2
E 450 453 2
E 450 464 14
E 451 453 1
E 452 454 1
E 453 470 14
E 455 476 22
E 455 503 71
E 456 457 1
E 457 503 69
E 458 459 1
E 459 465 7
E 460 461 1
E 462 465 1
E 462 466 1
E 463 467 1
E 464 468 1
E 464 470 2
E 465 469 1
E 466 469 1
E 466 478 14
E 467 479 14
E 468 471 2
E 469 480 14
E 470 471 1
E 472 473 1
E 473 484 14
E 474 475 1
E 476 477 1
E 476 506 71
E 477 507 71
E 478 480 1
E 478 481 1
E 479 482 1
E 480 483 1
E 481 483 1
E 483 488 7
E 484 485 1
E 485 492 7
E 486 487 1
E 487 494 14
E 488 489 1
E 488 498 18
E 489 496 14
E 489 499 18
E 490 491 1
E 494 495 1
E 496 497 1
E 496 501 18
E 497 502 18
E 498 499 1
E 499 501 14
E 501 502 1
E 503 504 7
E 503 509 33
E 504 505 1
E 505 506 14
E 506 507 1
E 508 509 1
E 508 518 35
E 509 519 35
E 510 511 1
E 510 512 2
E 511 513 2
E 511 520 14
E 512 513 1
E 512 514 3
E 513 515 3
E 513 522 14
E 514 515 1
E 514 516 4
E 515 517 4
E 515 529 14
E 516 517 1
E 516 524 9
E 517 527 9
E 517 534 14
E 518 519 1
E 518 538 21
E 519 542 21
E 520 521 1
E 520 522 2
E 521 525 2
E 522 525 1
E 522 529 3
E 523 526 1
E 523 528 2
E 524 527 1
E 525 531 3
E 526 530 2
E 526 537 14
E 527 539 14
E 528 530 1
E 528 532 2
E 529 531 1
E 529 534 4
E 530 533 2
E 530 544 14
E 531 535 4
E 532 533 1
E 533 546 14
E 534 535 1
E 534 539 9
E 535 536 7
E 535 543 9
E 536 540 1
E 536 548 9
E 537 541 1
E 537 544 2
E 538 542 1
E 538 554 69
E 539 543 1
E 540 549 9
E 541 545 2
E 542 555 69
E 543 548 7
E 544 545 1
E 544 546 2
E 545 547 2
E 545 550 30
E 546 547 1
E 548 549 1
E 550 551 1
E 551 552 14
E 552 553 1
E 554 555 1
E 1 556 100000
E 2 556 100000
E 3 556 100000
E 4 556 100000
E 5 557 100000
E 6 557 100000
E 7 557 100000
E 8 557 100000
E 9 558 100000
E 10 558 100000
E 11 558 100000
E 12 558 100000
E 13 559 100000
E 14 559 100000
E 15 559 100000
E 16 559 100000
E 17 560 100000
E 18 560 100000
E 19 560 100000
E 20 560 100000
E 21 561 100000
E 22 561 100000
E 23 561 100000
E 24 561 100000
E 25 562 100000
E 26 562 100000
E 27 562 100000
E 28 562 100000
E 29 563 100000
E 30 563 100000
E 31 563 100000
E 32 563 100000
E 33 564 100000
E 34 564 100000
E 35 564 100000
E 36 564 100000
E 37 565 100000
E 38 565 100000
E 39 565 100000
E 40 565 100000
E 41 566 100000
E 42 566 100000
E 43 566 100000
E 44 566 100000
E 45 567 100000
E 46 567 100000
E 47 567 100000
E 48 567 100000
E 49 568 100000
E 50 568 100000
E 51 568 100000
E 52 568 100000
E 53 569 100000
E 54 569 100000
E 55 569 100000
E 56 569 100000
E 57 570 100000
E 58 570 100000
E 59 570 100000
E 60 570 100000
E 61 571 100000
E 62 571 100000
E 63 571 100000
E 64 571 100000
E 65 572 100000
E 66 572 100000
E 67 572 100000
E 68 572 100000
E 69 573 100000
E 70 573 100000
E 71 573 100000
E 72 573 100000
E 73 574 100000
E 74 574 100000
E 75 574 100000
E 76 574 100000
E 77 575 100000
E 78 575 100000
E 79 575 100000
E 80 575 100000
E 81 576 100000
E 82 576 100000
E 83 576 100000
E 84 576 100000
E 85 577 100000
E 86 577 100000
E 87 577 100000
E 88 577 100000
E 89 578 100000
E 90 578 100000
E 91 578 100000
E 92 578 100000
E 93 578 100000
E 94 579 100000
E 95 579 100000
E 96 579 100000
E 97 579 100000
E 98 580 100000
E 99 580 100000
E 100 580 100000
E 101 580 100000
E 102 581 100000
E 103 581 100000
E 104 581 100000
E 105 581 100000
E 106 582 100000
E 107 582 100000
E 108 582 100000
E 109 582 100000
E 110 583 100000
E 111 583 100000
E 112 583 100000
E 113 583 100000
E 114 584 100000
E 115 584 100000
E 116 584 100000
E 117 584 100000
E 118 585 100000
E 119 585 100000
E 120 585 100000
E 121 585 100000
E 122 586 100000
E 123 586 100000
E 124 586 100000
E 125 586 100000
E 126 587 100000
E 127 587 100000
E 128 587 100000
E 129 587 100000
E 130 588 100000
E 131 588 100000
E 132 588 100000
E 133 588 100000
E 134 589 100000
E 135 589 100000
E 136 590 100000
E 137 590 100000
E 138 590 100000
E 139 590 100000
E 140 591 100000
E 141 591 100000
E 142 591 100000
E 143 591 100000
E 144 592 100000
E 145 592 100000
E 146 592 100000
E 147 592 100000
E 148 593 100000
E 149 593 100000
E 150 593 100000
E 151 593 100000
E 152 594 100000
E 153 594 100000
E 154 594 100000
E 155 594 100000
E 156 595 100000
E 157 595 100000
E 158 595 100000
E 159 595 100000
E 160 596 100000
E 161 596 100000
E 162 596 100000
E 163 596 100000
E 164 597 100000
E 165 597 100000
E 166 597 100000
E 167 597 100000
E 168 598 100000
E 169 598 100000
E 170 598 100000
E 171 598 100000
E 172 599 100000
E 173 599 100000
E 174 599 100000
E 175 599 100000
E 176 600 100000
E 177 600 100000
E 178 600 100000
E 179 600 100000
E 180 601 100000
E 181 601 100000
E 182 601 100000
E 183 601 100000
E 184 602 100000
E 185 602 100000
E 186 602 100000
E 187 602 100000
E 188 603 100000
E 189 603 100000
E 190 603 100000
E 191 603 100000
E 192 604 100000
E 193 604 100000
E 194 604 100000
E 195 604 100000
E 196 605 100000
E 197 605 100000
E 198 605 100000
E 199 605 100000
E 200 606 100000
E 201 606 100000
E 202 606 100000
E 203 606 100000
E 204 607 100000
E 205 607 100000
E 206 607 100000
E 207 607 100000
E 208 608 100000
E 209 608 100000
E 210 608 100000
E 211 608 100000
E 212 609 100000
E 213 609 100000
E 214 609 100000
E 215 609 100000
E 216 610 100000
E 217 610 100000
E 218 610 100000
E 219 610 100000
E 220 589 100000
E 221 589 100000
E 222 589 100000
END

SECTION Terminals
Terminals 55
T 556
T 557
T 558
T 559
T 560
T 561
T 562
T 563
T 564
T 565
T 566
T 567
T 568
T 569
T 570
T 571
T 572
T 573
T 574
T 575
T 576
T 577
T 578
T 579
T 580
T 581
T 582
T 583
T 584
T 585
T 586
T 587
T 588
T 589
T 590
T 591
T 592
T 593
T 594
T 595
T 596
T 597
T 598
T 599
T 600
T 601
T 602
T 603
T 604
T 605
T 606
T 607
T 608
T 609
T 610
END

SECTION Tree Decomposition
c We do not guarantee that this tree decomposition has minimum width.
s td 507 19 610
b 1 5 6 557
b 2 216 217 610
b 3 6 7 557
b 4 217 610 218
b 5 7 557 8
b 6 8 212
b 7 610 218 219
b 8 219 196
b 9 399 408 395
b 10 377 381 341
b 11 408 409 395
b 12 409 395 423
b 13 381 395 341
b 14 395 423 341
b 15 70 573 69 71
b 16 573 69 72 71
b 17 28 27 562 482
b 18 126 587 127 319
b 19 118 119 585 259
b 20 139 138 590 240
b 21 136 590 137 235
b 22 147 592 146 396
b 23 148 593 149 370
b 24 48 567 47 442
b 25 159 158 595 353
b 26 167 597 166 278
b 27 168 598 169 256
b 28 196 197 605 200
b 29 212 609 213 208
b 30 4 3 12 556
b 31 215 609 214 211
b 32 61 62 571 412
b 33 69 72 71 553
b 34 2 3 10 556
b 35 72 71 555 553
b 36 71 555 554 553
b 37 80 575 79 84
b 38 555 554 553 542
b 39 3 10 11 12 556
b 40 346 110 286 347
b 41 367 365 155 366
b 42 1 556 9 542
b 43 386 382 140 387
b 44 398 418 97 394
b 45 403 405 388 391
b 46 410 426 101 421
b 47 415 416 411 405
b 48 422 431 424 421
b 49 425 427 426 57
b 50 432 431 53 434
b 51 439 436 437 56
b 52 449 451 375 450
b 53 462 465 466 37
b 54 472 473 49 68
b 55 474 89 475 90
b 56 477 507 476 68
b 57 484 485 51 473
b 58 552 75 551 553
b 59 491 490 88 93
b 60 492 485 33 29
b 61 549 540 78 548
b 62 493 396 134 102
b 63 495 24 494 20
b 64 497 502 496 20
b 65 500 151 135 77
b 66 504 505 65 503
b 67 506 507 505 476
b 68 508 509 518 93
b 69 521 525 105 520
b 70 523 528 85 526
b 71 524 527 516 135
b 72 531 525 529 535
b 73 342 344 332 362
b 74 539 543 534 527
b 75 547 84 546 545
b 76 538 554 518 542
b 77 550 551 73 545
b 78 223 224 188 192
b 79 225 227 226 195
b 80 231 232 226 233
b 81 241 242 237 179
b 82 245 243 242 246
b 83 247 248 130 244
b 84 249 132 248 250
b 85 251 290 253 133
b 86 252 183 164 172
b 87 254 253 311 255
b 88 261 265 262 164
b 89 263 283 264 121
b 90 279 281 266 286
b 91 280 282 100 264
b 92 284 160 269 288
b 93 285 319 290 133
b 94 293 301 160 296
b 95 295 292 117 306
b 96 300 299 294 310
b 97 303 171 301 304
b 98 316 291 332 347
b 99 317 336 315 101
b 100 324 311 326 255
b 101 328 329 304 321
b 102 338 340 271 326
b 103 565 38 39 40 37
b 104 587 127 128 319 129
b 105 127 128 322 319 129
b 106 128 322 319 335 129
b 107 322 319 290 335 129
b 108 319 290 335 129 133
b 109 568 50 52 51 49
b 110 607 204 205 206 207
b 111 601 181 182 180 183
b 112 600 177 178 176 179
b 113 564 34 35 36 33
b 114 597 165 166 278 164
b 115 165 166 262 278 164
b 116 166 277 262 278 164
b 117 563 31 30 32 29
b 118 27 562 26 482 479
b 119 562 26 482 479 25
b 120 26 482 479 467 25
b 121 559 15 14 16 13
b 122 31 30 32 35 29
b 123 30 32 34 35 29
b 124 609 213 214 208 211
b 125 213 214 208 209 211
b 126 214 208 209 210 211
b 127 119 585 120 259 260
b 128 585 120 259 260 121
b 129 120 259 260 275 121
b 130 138 590 137 240 239
b 131 590 137 240 239 235
b 132 137 240 239 236 235
b 133 482 479 467 24 25
b 134 479 23 467 24 25
b 135 554 553 76 518 542
b 136 588 131 132 130 133
b 137 131 132 248 130 133
b 138 132 248 130 250 133
b 139 248 130 250 244 133
b 140 130 250 244 246 133
b 141 591 141 142 143 140
b 142 567 47 46 45 442
b 143 47 46 440 45 442
b 144 46 440 430 45 442
b 145 579 96 95 94 97
b 146 560 19 18 20 17
b 147 440 430 45 43 442
b 148 583 111 112 110 113
b 149 586 123 124 125 122
b 150 582 108 107 106 109
b 151 594 153 154 152 155
b 152 123 124 257 125 122
b 153 124 257 271 125 122
b 154 574 74 75 73 76
b 155 74 75 551 73 76
b 156 75 551 73 553 76
b 157 551 73 553 76 545
b 158 73 553 76 541 545
b 159 606 200 201 202 203
b 160 598 169 170 256 171
b 161 169 170 256 258 171
b 162 170 256 258 272 171
b 163 158 595 157 351 353
b 164 595 157 351 156 353
b 165 157 351 331 156 353
b 166 584 116 115 114 117
b 167 351 331 156 364 353
b 168 561 22 23 24 21
b 169 593 149 150 370 151
b 170 149 150 370 371 151
b 171 150 370 371 389 151
b 172 370 371 389 151 359
b 173 371 389 361 151 359
b 174 177 178 228 176 179
b 175 178 228 176 179 233
b 176 181 182 185 180 183
b 177 182 185 186 180 183
b 178 566 42 43 44 41
b 179 581 104 103 102 105
b 180 197 605 198 200 201
b 181 605 198 200 201 199
b 182 198 200 201 202 199
b 183 558 10 11 12 9
b 184 608 208 209 210 211
b 185 596 161 160 163 162
b 186 208 209 210 204 211
b 187 209 210 204 205 211
b 188 210 204 205 206 211
b 189 577 86 88 87 85
b 190 580 100 99 98 101
b 191 240 239 236 235 244
b 192 239 236 243 235 244
b 193 236 243 238 235 244
b 194 592 146 145 144 396
b 195 146 145 392 144 396
b 196 145 392 378 144 396
b 197 62 571 63 414 412
b 198 571 63 414 64 412
b 199 63 414 419 64 412
b 200 603 190 188 189 191
b 201 250 244 246 133 122
b 202 256 258 272 171 172
b 203 258 173 272 171 172
b 204 414 419 58 64 412
b 205 259 260 275 114 121
b 206 260 275 115 114 121
b 207 277 262 289 278 164
b 208 392 378 144 396 400
b 209 602 187 185 186 184
b 210 576 83 84 82 81
b 211 599 174 173 175 172
b 212 174 173 272 175 172
b 213 173 272 175 171 172
b 214 272 274 175 171 172
b 215 575 79 78 84 77
b 216 79 78 83 84 77
b 217 274 175 171 160 172
b 218 175 171 160 269 172
b 219 604 193 194 192 195
b 220 193 194 224 192 195
b 221 194 224 192 229 195
b 222 569 56 54 55 53
b 223 570 58 60 59 57
b 224 572 66 67 65 68
b 225 416 413 411 405 135
b 226 418 417 457 97 394
b 227 451 453 102 375 450
b 228 509 519 518 93 503
b 229 528 530 532 85 526
b 230 540 536 78 82 548
b 231 340 273 271 326 110
b 232 543 534 527 535 548
b 233 232 234 235 226 233
b 234 265 262 267 269 164
b 235 262 267 289 269 278 164
b 236 267 289 270 269 278 164
b 237 227 228 176 226 195
b 238 228 176 179 226 233 195
b 239 176 179 226 233 195 230
b 240 507 505 476 29 68
b 241 283 287 264 98 121
b 242 282 100 264 101 412
b 243 329 304 321 323 359
b 244 502 501 16 496 20
b 245 10 11 12 556 14 9
b 246 11 12 556 15 14 9
b 247 12 556 15 14 16 9
b 248 556 15 14 16 9 542
b 249 553 76 518 541 542 545
b 250 200 201 202 204 199 203
b 251 201 202 204 205 199 203
b 252 202 204 205 206 199 203
b 253 204 205 206 199 203 207 211
b 254 199 203 207 211 180
b 255 203 207 211 180 184
b 256 207 211 180 184 188
b 257 211 180 184 188 192
b 258 243 238 242 235 244 246
b 259 238 242 237 235 244 246
b 260 242 237 235 179 244 246
b 261 237 234 235 179 244 246
b 262 257 271 125 326 122 255
b 263 275 116 115 276 114 121
b 264 290 308 335 253 129 133
b 265 308 335 253 311 129 133
b 266 335 253 311 129 337 133
b 267 253 311 129 337 133 255
b 268 311 129 337 133 326 255
b 269 129 337 133 326 255 375
b 270 337 133 326 255 106 375
b 271 234 235 179 226 233 244 246
b 272 179 226 233 244 246 195 230
b 273 244 246 195 230 133 122
b 274 430 45 429 42 43 442
b 275 45 429 42 43 442 64
b 276 389 361 151 359 383 391
b 277 361 151 359 357 383 391
b 278 22 23 467 24 487 21
b 279 32 34 35 36 13 29
b 280 534 527 517 529 535 548
b 281 378 144 374 384 396 400
b 282 144 374 384 396 400 353
b 283 187 185 186 184 191 183
b 284 50 52 51 473 446 49
b 285 161 160 296 163 162 288
b 286 171 301 304 160 269 172
b 287 224 188 189 192 229 195
b 288 419 58 59 64 420 412
b 289 273 271 125 326 110 286
b 290 271 125 326 122 255 110 286
b 291 125 326 122 255 110 266 286
b 292 519 518 9 93 503 542
b 293 19 18 496 494 20 17
b 294 331 156 364 330 350 353
b 295 156 364 278 330 350 353
b 296 116 115 276 114 292 117 121
b 297 115 276 114 268 292 117 121
b 298 276 114 268 292 117 98 121
b 299 114 268 292 117 98 121 266
b 300 268 292 117 98 121 281 266
b 301 185 186 180 184 189 191 183
b 302 186 180 184 190 189 191 183
b 303 180 184 190 188 189 192 191 183
b 304 190 188 189 192 191 229 183
b 305 188 189 192 191 229 195 183
b 306 191 229 195 230 183
b 307 195 230 183 133 122
b 308 183 133 122 164 172
b 309 23 467 24 25 494 487 21
b 310 467 24 463 25 494 487 21
b 311 24 463 25 494 20 487 21
b 312 463 25 494 20 487 21 44
b 313 25 494 20 487 21 44 442
b 314 15 14 501 16 13 9 542
b 315 14 501 16 13 499 9 542
b 316 343 325 333 345 354
b 317 339 327 334 341 358
b 318 360 369 438 341 358
b 319 363 344 94 113 362
b 320 372 154 357 373 383
b 321 376 406 380 94 113
b 322 452 454 67 433 441
b 323 390 411 405 141 388
b 324 397 443 109 393 468
b 325 402 142 400 387 404
b 326 498 36 13 488 499
b 327 489 18 496 488 499
b 328 423 424 438 341 421
b 329 428 427 436 54 426
b 330 464 470 393 450 468
b 331 435 59 427 436 437
b 332 385 388 373 383 391
b 333 447 437 37 41 448
b 334 307 299 162 288 310
b 335 458 51 446 55 459
b 336 510 512 134 102 511
b 337 514 516 515 512 221
b 338 480 35 483 469 478
b 339 379 107 375 393 450
b 340 481 483 17 40 478
b 341 486 487 17 21 40
b 342 537 87 541 526 544
b 343 460 461 39 43 448
b 344 471 470 105 90 468
b 345 444 475 456 407 443
b 346 445 446 53 49 434
b 347 455 476 65 97 503
b 348 297 117 298 98 318
b 349 352 153 349 350 365
b 350 356 323 152 359 357
b 351 320 327 334 298 318
b 352 355 95 345 354 368
b 353 348 310 330 349 350
b 354 314 313 323 163 152
b 355 522 513 525 529 520
b 356 305 292 306 281 309
b 357 401 396 400 134 404
b 358 533 530 532 546 82
b 359 302 301 304 321 296
b 360 301 304 321 160 296 269 172
b 361 312 306 325 309 333
b 362 66 505 67 65 441 68
b 363 104 103 470 102 105 520
b 364 103 453 470 102 105 511 520
b 365 536 78 82 81 535 548
b 366 38 39 466 40 37 448
b 367 96 95 94 368 97 394
b 368 431 424 433 53 434 421
b 369 111 112 107 110 113 347
b 370 485 52 51 473 33 29
b 371 589 220 134 135 221 222
b 372 291 332 281 309 286 347
b 373 417 457 456 97 394 407
b 374 413 411 405 143 135 222
b 375 86 88 87 91 85 526
b 376 287 264 99 98 121 57
b 377 34 35 36 13 469 33 29
b 378 289 270 299 294 269 278 164
b 379 270 299 294 269 288 278 164
b 380 429 42 43 442 64 41 420
b 381 112 108 107 110 113 347 362
b 382 220 512 134 135 221 222 404
b 383 518 541 9 93 503 542 545
b 384 42 43 44 442 64 41 420 448
b 385 336 334 315 101 341 421
b 386 490 88 87 91 92 93
b 387 374 384 382 396 400 353 366
b 388 384 382 396 400 387 353 366
b 389 100 264 99 315 98 101 412
b 390 264 99 315 98 121 57 101 412
b 391 99 315 298 98 121 57 101 412
b 392 527 517 516 529 135 535 548
b 393 517 516 515 529 135 535 548
b 394 457 456 97 394 407 93 503
b 395 530 532 546 82 85 526 544
b 396 364 278 330 350 365 353 366
b 397 88 87 541 91 92 93 85 526
b 398 87 541 91 92 93 85 526 544
b 399 78 83 84 82 77 81 535 548
b 400 83 84 546 82 77 81 535 548
b 401 84 546 82 77 81 535 548 545
b 402 299 294 269 162 288 310 278 164
b 403 294 269 162 288 310 278 330 164
b 404 453 470 102 105 511 520 375 450
b 405 292 117 306 98 121 281 309 266
b 406 35 36 483 13 469 478 33 29
b 407 578 89 91 92 93 90
b 408 465 466 469 37 33 459
b 409 461 39 21 40 43 44 448
b 410 344 332 333 94 354 113 362
b 411 151 359 357 383 391 135 77
b 412 513 525 515 529 512 511 520
b 413 313 321 296 323 163 162 152
b 414 501 16 496 20 13 499 9 542
b 415 304 321 160 296 323 269 359 172
b 416 52 51 473 446 33 459 29 49
b 417 51 473 446 33 55 459 29 49
b 418 473 446 33 55 459 29 49 68
b 419 505 476 67 65 441 29 68 503
b 420 476 67 65 441 29 68 97 503
b 421 117 306 298 98 121 318 281 309 266
b 422 321 160 296 323 163 269 162 152 359 172
b 423 160 296 323 163 269 162 288 152 359 172
b 424 323 163 269 162 288 152 359 357 172
b 425 454 67 433 441 49 68 434
b 426 95 380 94 345 354 368 97 394
b 427 382 396 400 140 387 155 353 366
b 428 411 405 141 142 143 388 135 222
b 429 405 141 142 143 388 391 135 222
b 430 141 142 143 388 140 387 391 135 222
b 431 142 143 388 400 140 387 391 135 222 404
b 432 143 388 400 140 387 391 135 221 222 404
b 433 89 475 443 91 92 93 90 468
b 434 475 456 407 443 91 92 93 90 468
b 435 58 60 59 427 64 420 57 412
b 436 60 59 427 437 64 41 420 57 412
b 437 59 427 436 437 64 41 420 57 412
b 438 18 496 494 20 487 17 488 499
b 439 36 483 13 488 499 469 478 33 29
b 440 406 380 94 407 443 109 113
b 441 369 438 65 341 358 368 97
b 442 424 438 433 441 53 434 341 421
b 443 133 326 122 255 106 164 172 375
b 444 532 546 82 81 105 85 526 544
b 445 516 515 529 512 135 221 222 535 548
b 446 483 13 17 488 499 40 469 478 33 29
b 447 163 269 162 288 310 152 349 359 357 172
b 448 153 154 152 349 350 365 357 155
b 449 154 152 349 350 365 357 155 373 383
b 450 39 466 21 40 478 43 44 37 448
b 451 108 107 110 106 109 113 347 362 393
b 452 496 494 20 487 13 17 488 499 9 542
b 453 67 65 433 441 29 49 68 434 97 503
b 454 326 122 255 110 106 164 172 266 286 375
b 455 306 298 98 121 318 325 281 309 333 266
b 456 427 436 437 64 41 420 54 426 57 412
b 457 107 110 106 109 113 347 362 375 393 450
b 458 327 334 298 318 325 341 358 345
b 459 388 400 140 387 373 383 391 135 221 222 404
b 460 525 515 529 512 81 535 105 511 520
b 461 334 315 298 318 325 101 341 358 421 345
b 462 436 437 56 64 41 420 54 55 426 57 412
b 463 269 162 288 310 278 330 152 349 359 357 164 172
b 464 310 278 330 152 349 350 359 357 164 172
b 465 437 56 64 37 41 420 448 54 55 426 57 412
b 466 470 102 105 511 520 90 375 393 450 468
b 467 466 21 40 469 478 43 44 37 448 33 459
b 468 446 33 54 55 459 53 29 49 68 434
b 469 546 82 77 81 535 548 105 85 526 544 545
b 470 456 97 394 407 443 91 92 93 503 90 468
b 471 278 330 152 349 350 365 359 357 353 366 164 172
b 472 152 349 350 365 359 357 155 353 366 373 383 164 172
b 473 515 529 512 135 221 222 81 535 548 105 511 520
b 474 396 400 140 387 155 353 366 134 404 102
b 475 359 357 155 353 366 373 383 391 135 77 164 172
b 476 56 64 37 41 420 448 54 55 459 426 53 57 412
b 477 332 281 309 333 94 354 113 286 347 362
b 478 380 94 345 354 368 97 394 407 443 109 113
b 479 494 20 487 13 17 488 499 21 44 442 9 542
b 480 487 13 17 488 499 21 40 44 442 9 542
b 481 13 17 488 499 21 40 469 478 44 442 33 29 9 542
b 482 21 40 469 478 43 44 442 37 448 33 459 29 9 542
b 483 43 44 442 64 37 41 420 448 33 459 29 9 542
b 484 438 65 433 441 53 434 341 358 421 368 97
b 485 65 433 441 53 29 49 68 434 341 358 421 368 97 503
b 486 512 134 135 221 222 404 81 535 548 102 105 511 520
b 487 64 37 41 420 448 33 54 55 459 426 53 29 57 412 9 542
b 488 33 54 55 459 426 53 29 49 68 434 57 412 9 542
b 489 426 53 29 49 68 434 57 101 412 421 9 542
b 490 541 9 91 92 93 503 542 85 526 544 545
b 491 315 298 98 121 318 325 57 101 341 358 412 421 345
b 492 400 140 387 155 353 366 373 383 391 134 135 221 222 404 102
b 493 155 353 366 373 383 391 134 135 221 222 404 77 102 164 172
b 494 134 135 221 222 404 77 81 535 548 102 105 511 520 164 172
b 495 77 81 535 548 102 105 511 520 85 164 172 526 544 545
b 496 53 29 49 68 434 57 101 341 358 412 421 368 97 9 503 542
b 497 110 106 109 113 164 172 266 286 347 362 375 393 450
b 498 102 105 511 520 85 90 164 172 375 393 450 468 526 544 545
b 499 298 98 121 318 325 57 101 341 358 412 421 281 309 333 345 266
b 500 325 57 101 341 358 412 421 281 309 333 345 354 266
b 501 57 101 341 358 412 421 281 309 333 345 354 368 97 9 503 542 266
b 502 281 309 333 94 345 354 368 97 9 503 542 113 266 286 347 362
b 503 94 345 354 368 97 394 407 443 9 503 542 109 113 266 286 347 362
b 504 97 394 407 443 9 91 92 93 503 542 90 109 113 266 286 347 362 468
b 505 443 9 91 92 93 503 542 90 109 113 266 286 347 362 393 468
b 506 9 91 92 93 503 542 85 90 109 113 266 286 347 362 393 468 526 544 545
b 507 85 90 109 113 164 172 266 286 347 362 375 393 450 468 526 544 545
1 3
3 5
5 6
6 29
29 124
124 125
125 126
126 184
126 186
186 187
187 188
188 253
253 252
252 251
251 250
253 110
253 254
250 159
250 182
254 255
182 181
255 256
181 180
256 257
257 303
303 302
303 304
302 301
304 305
305 287
301 283
305 306
287 221
283 209
221 220
220 219
303 200
301 177
177 176
176 111
287 78
306 307
307 273
273 201
273 272
272 239
272 271
239 238
271 261
261 260
260 259
259 258
271 233
238 175
238 237
201 140
258 193
175 174
140 139
193 192
174 112
139 138
192 191
138 137
191 132
137 136
132 131
131 130
307 308
308 443
443 454
454 497
497 507
507 506
506 505
505 504
504 503
503 502
507 498
502 501
501 500
500 499
499 491
501 496
496 485
496 489
503 478
498 495
506 490
504 470
485 484
489 488
488 487
487 476
476 465
495 494
494 486
487 483
465 462
486 473
483 482
482 467
482 481
481 480
480 479
497 457
502 477
498 466
491 461
499 455
485 453
495 469
488 468
494 493
493 492
493 475
492 459
479 452
481 446
462 456
492 474
475 472
472 471
459 432
471 464
432 431
464 463
463 447
470 434
473 445
473 460
467 450
457 451
455 421
456 437
472 449
431 430
447 424
446 439
437 436
424 423
423 422
491 391
391 390
478 426
490 398
398 397
484 442
483 384
466 404
461 458
453 420
469 444
420 419
469 401
468 418
401 400
418 417
400 399
417 416
452 438
474 427
463 403
403 402
434 433
421 405
449 448
430 429
429 428
439 406
436 435
422 415
384 380
404 364
427 388
390 389
402 379
405 300
444 395
406 377
415 360
388 387
379 378
300 299
299 298
298 297
297 296
478 440
490 383
470 394
484 441
486 382
479 313
477 410
313 312
312 311
311 310
310 309
453 425
475 411
452 414
414 315
315 314
471 396
445 393
393 392
460 412
450 409
451 381
454 291
291 290
422 413
416 284
416 370
438 293
433 407
428 374
435 288
380 275
364 363
399 365
387 282
378 236
296 263
383 292
394 373
426 367
382 371
390 376
309 278
397 375
411 277
397 386
377 279
442 368
360 286
314 248
396 295
419 362
392 280
381 369
290 262
290 289
275 274
282 281
236 235
277 276
248 247
295 294
247 246
246 245
467 408
477 372
461 385
450 366
443 270
270 269
269 268
268 267
267 266
266 265
265 264
423 285
404 227
458 351
458 317
420 347
419 240
400 210
417 335
399 216
438 327
402 334
405 356
448 151
448 349
428 323
505 324
406 338
435 223
415 243
389 190
389 242
395 229
395 358
377 113
360 359
440 321
296 166
383 249
441 318
410 319
309 134
425 322
414 244
314 121
412 355
409 343
293 146
374 225
288 204
363 179
365 230
263 206
292 228
373 226
367 145
376 241
278 168
375 189
279 123
286 218
362 224
280 232
369 148
262 153
289 231
274 147
235 207
235 234
276 173
294 167
500 316
281 208
245 183
366 103
245 39
413 354
426 352
398 342
284 109
384 178
442 328
264 108
285 185
216 215
249 135
249 158
134 133
204 199
206 205
123 122
218 217
153 152
147 144
207 116
173 172
167 165
208 196
108 107
158 157
133 120
199 198
205 129
122 117
217 214
152 149
144 143
116 115
172 171
165 164
196 195
107 106
157 156
120 119
198 197
129 128
214 213
143 142
115 114
171 170
164 163
195 194
106 105
156 155
119 118
128 127
213 203
213 212
170 169
105 104
155 154
203 202
212 211
202 162
162 161
161 160
476 222
465 333
486 336
480 341
457 339
466 330
466 344
455 361
468 346
459 332
446 340
456 329
474 357
464 353
431 325
434 345
445 337
451 150
421 348
437 331
449 320
430 141
424 350
439 326
419 66
401 75
418 54
427 43
402 96
433 55
405 95
429 45
360 94
410 73
311 63
411 65
502 90
392 71
370 57
370 60
386 59
368 48
368 50
286 97
248 42
408 53
372 98
268 100
267 87
264 85
227 52
240 56
240 67
243 101
242 91
229 70
244 64
225 47
230 61
228 68
226 44
241 89
232 74
231 102
234 88
108 93
135 38
215 37
135 76
489 46
157 77
156 58
197 32
114 26
163 25
194 22
118 17
127 19
169 23
104 18
142 24
160 27
39 34
39 30
38 36
36 35
35 33
33 16
16 15
260 81
124 31
258 82
233 80
237 79
462 51
139 83
138 84
180 28
308 86
131 21
130 20
456 49
474 62
472 41
385 99
460 69
460 72
497 40
423 92
328 14
14 12
14 13
12 11
13 10
11 9
28 8
8 7
7 4
4 2
END

EOF
